(declare-fun e () String)
(declare-fun c () String)
(declare-fun b () String)
(declare-fun d () String)
(declare-fun f () String)
(declare-fun h () String)
(assert (= (str.++ c "f" c "ch") (str.++ d "h")))
(assert (= (str.++ e b) (str.++ "g" d "dh")))
(assert (= (str.++ h "ffh") (str.++ "cfc" f "e" e)))

(check-sat)
